3	62
22	58
23	271
42	220
62	112
101	29
102	48
103	74
122	184
123	84
141	18
143	221
161	24
162	71
163	67
182	33
201	4
202	81
203	12
221	18
222	8
223	75
242	49
243	12
262	19
263	56
282	1
283	37
301	5
302	5
303	17
322	23
323	6
342	1
343	21
362	0
363	2
382	4
383	5
400	0
402	1
403	1
423	5
442	1
443	0
462	1
463	0
482	0
483	2
503	0
522	0
523	0
543	0
563	0
583	0
602	0
603	0
623	0
643	0
663	0
683	0
703	0
743	0
783	0
803	0
823	0
883	0
943	0
963	0
1103	0
